ObjectiveValue = 4468.7;
flow=[(5,1,2)(5,2,5)(5,4,0)(5,6,33)(5,8,0)(5,9,0)(5,10,1)(5,11,2)(5,12,0)(5,13,0)(6,5,3)(6,7,2)(6,10,5)(6,11,23)(7,6,1)(8,9,3)(10,12,2)(11,5,1)(11,6,30)(12,5,4)(12,6,24)(12,8,3)(12,9,1)(12,10,2)(12,11,4)(13,12,1)];
